processors * * *
units       real
dimension   3
boundary    p p p 
atom_style  full

variable d equal 0.1

pair_style  hybrid/overlay lj/cut/coul/debye $d 0.0 lj/cut $d lj/cut $d table lookup 1000
bond_style  harmonic
dielectric  80.0

variable t world 180 183 186 189 192 196 200 204 210 216 222 228 234 240 250 260 270 280 290 300 320 340 360 380 420 460 500 540
#variable t world 300

read_data input.data
#read_restart restart.$t.tmp2

#fix walls all wall/harmonic xlo EDGE 80.0 5.0 20.0 xhi EDGE 80.0 5.0 20.0 ylo EDGE 80.0 5.0 20.0 yhi EDGE 80.0 5.0 20.0 zlo EDGE 80.0 5.0 20.0 zhi EDGE 80.0 5.0 20.0 

bond_coeff  1 189 3.81

pair_coeff * * lj/cut 1 0.0 0.0 0.0
include KH_A_Coeffs.txt

special_bonds fene

neighbor  3.5 multi
neigh_modify  every 10 delay 0

timestep      10.0

#variable hpush atom "(z/abs(z))*0.6*20/z^13"
#variable spush atom "1/(1+exp(z))"

group arp23 id 1:1895
group actin id 1896:2270
group wh id 2271:2281
group rigid1 union arp23 actin wh
group rigid2 id 2305:2321
group nonrigid subtract all rigid1 rigid2 
#include fixes.txt

velocity all create $t 494211
#velocity all create $t 494211
fix fxrigid1 rigid1 rigid/nve molecule
fix fxrigid2 rigid2 rigid/nve molecule
#neigh_modify exclude molecule/intra rigid
neigh_modify exclude molecule/intra rigid1
neigh_modify exclude molecule/intra rigid2
fix fxlange all langevin $t $t 1000.0 327843
fix fxstandard nonrigid nve
#fix fxdummy dummy nve

group arp3 id 1:404
group arp2 id 405:778
group arpC1 id 779:1132
group a id 2339:2342

compute egroup1 a group/group arp2
compute egroup2 a group/group arpC1
compute egroup3 a group/group arp3
compute egroup4 a group/group arp23
compute egroup5 rigid2 group/group arp2
compute egroup6 rigid2 group/group arpC1 
compute egroup7 rigid2 group/group arp3
compute egroup8 rigid2 group/group arp23 

thermo        1000
thermo_style  custom step pe ke temp press c_egroup1 c_egroup2 c_egroup3 c_egroup4 c_egroup5 c_egroup6 c_egroup7 c_egroup8
thermo_modify flush yes
dump          VMD1 all xtc 1000 xtc/out_$t.xtc
restart       100000 restart.$t.tmp1 restart.$t.tmp2

#run           100000
temper        500000000 1000 $t fxlange 0 18374
write_data out_$t.data
